p tw 32 45
1 2
5 6
5 9
9 10
9 13
13 14
13 17
17 18
17 21
21 22
21 25
25 26
25 29
29 30
2 3
2 6
6 7
6 10
10 11
10 14
14 15
18 19
18 22
22 23
22 26
26 27
26 30
30 31
3 4
3 7
7 8
7 11
11 12
15 16
15 19
19 23
23 24
23 27
27 28
31 32
4 8
8 12
12 16
16 20
24 28
